c Output_time 26.03.2020 18:15:09_+0100 1585242909473069641
c ** Program information **
c program_name                          "QBRG_debug"
c version                               "0.3.20"
c date                                  "25.3.2020"
c gid_id                                "673970833836058123f633335630c185360d632e"
c author                                "Oliver Kullmann"
c url                                   "https://github.com/OKullmann/oklibrary/blob/master/Satisfiability/Transformers/Generators/Random/QBRG.cpp"
c ** Machine information **
c machine_name                          "chyna-Lenovo-G50-70"
c bogomips                              3791.08
c ** Compilation information **
c compiler_version                      "g++ 7.5.0"
c compilation_date                      "Mar_26_2020 11:16:30"
c compilation_options                   "--std=c++17 -pedantic -fmax-errors=5 -Wall -Wextra -g -D_GLIBCXX_DEBUG"
c NDEBUG                                0
c OPTIMIZE                              0
c ** Parameters **
c command-line                          "./QBRG_debug" "a40 e40 a40 40" "105*1,1|2-2,1|3-3,1|4-4,1" "" "1,t" ""
c output                                "QuBlRaGe_160_105_1585242909472910559.qdimacs"
c options                               "filtered,renamed"
c num_quantifier_blocks                 4
c  quantifier_blocks                    1:a1-40 2:e41-80 3:a81-120 4:e121-160
c num_clause-blocks                     1
c  clause-blocks                        105 * {1-40,1,1/2} | {41-80,1,1/2} | {81-120,1,1/2} | {121-160,1,1/2}
c num_e-seeds                           37+2=39
c  e-seeds                              1 0 1 0 5 160 2 40 0 40 1 40 0 40 1 105 4 1 1 1 1 2 2 2 1 1 2 3 3 1 1 2 4 4 1 1 2 1 1585242909472910082
p cnf 148 105
a 1 2 3 4 5 6 7 8 9 10 11 12 13 14 15 16 17 18 19 20 21 22 23 24 25 26 27 28 29 30 31 32 33 34 35 0
e 36 37 38 39 40 41 42 43 44 45 46 47 48 49 50 51 52 53 54 55 56 57 58 59 60 61 62 63 64 65 66 67 68 69 70 71 72 73 0
a 74 75 76 77 78 79 80 81 82 83 84 85 86 87 88 89 90 91 92 93 94 95 96 97 98 99 100 101 102 103 104 105 106 107 108 109 110 111 112 0
e 113 114 115 116 117 118 119 120 121 122 123 124 125 126 127 128 129 130 131 132 133 134 135 136 137 138 139 140 141 142 143 144 145 146 147 148 0
2 -63 85 113 0
-17 37 99 113 0
34 -45 78 -114 0
-13 -50 97 -114 0
-30 -56 -107 -114 0
-30 -58 75 114 0
-28 -44 91 114 0
17 -42 107 114 0
-21 66 -82 -115 0
-10 69 80 115 0
27 47 94 -116 0
28 -49 95 -116 0
-23 70 -75 -117 0
26 -50 -108 -117 0
19 59 78 117 0
12 65 -88 -118 0
2 67 88 -118 0
-17 65 -104 -118 0
4 -63 105 -118 0
-12 -46 91 118 0
27 -71 91 -119 0
23 -61 -97 -119 0
5 -67 74 119 0
31 52 111 -120 0
-23 65 84 120 0
-12 -48 -104 -121 0
-18 45 -95 121 0
26 38 -84 -122 0
-15 -44 86 -122 0
7 59 -106 -122 0
2 55 -81 -123 0
8 41 -109 -123 0
-22 65 80 -124 0
-2 37 85 -124 0
4 60 106 -124 0
22 -54 -74 124 0
10 -66 79 124 0
-27 72 90 -125 0
-33 -42 99 -125 0
-30 -53 -96 -126 0
31 43 -76 126 0
-34 54 80 126 0
-20 -50 86 126 0
1 -70 87 126 0
24 36 -79 -127 0
-17 38 111 127 0
3 -36 -102 -128 0
-15 -62 104 -128 0
28 -43 -83 -129 0
30 59 90 -129 0
-17 44 78 129 0
-17 -40 -81 129 0
-9 68 87 -130 0
29 39 -89 -130 0
-26 -53 101 -130 0
27 51 88 130 0
-14 -49 91 130 0
3 59 -92 130 0
-12 -71 -106 -131 0
16 61 -107 131 0
2 67 86 -132 0
-30 -41 -104 -133 0
17 64 -111 -133 0
7 50 80 133 0
19 -40 100 133 0
-26 38 -77 -134 0
-18 -46 84 -134 0
30 -51 93 -134 0
6 67 101 -134 0
3 -69 -110 -134 0
32 48 -98 134 0
25 48 91 -135 0
10 73 -97 -135 0
-23 -58 99 -136 0
-21 -43 85 -137 0
11 -36 112 -137 0
10 -41 -76 -138 0
-17 71 74 138 0
-26 54 88 138 0
-14 40 89 138 0
16 57 -91 138 0
-29 -65 -105 139 0
-7 -40 110 -140 0
-10 -40 -94 140 0
17 -57 -111 141 0
-35 -69 -110 142 0
-9 -45 -95 -143 0
13 -70 106 -143 0
22 58 88 143 0
-34 -47 110 143 0
-32 -69 81 -144 0
-35 -68 -95 144 0
11 36 -84 -145 0
15 59 81 145 0
33 -49 -92 145 0
-8 -57 101 -146 0
28 -38 100 146 0
9 38 112 146 0
34 68 89 -147 0
-12 47 -101 -147 0
-18 -60 -107 -147 0
-29 -55 -92 147 0
15 -66 103 -148 0
16 47 -106 -148 0
35 62 99 148 0
